DIMENSION :25
NODE_COORD_SECTION
1 30.483405242083336 -58.61998657787788
2 85.41155715048117 78.41755846230069
3 -27.651534162139924 35.033927495893266
4 11.94561077611003 47.874747075752396
5 -3.0757824895528216 71.0189880631248
6 28.903474287846933 -46.000790399516966
7 -17.501460446942502 87.6086101551754
8 -34.80859705687615 78.11270303785477
9 -80.89403624611509 -10.026912946301366
10 51.39872917333952 -57.14479504443204
11 75.10963372861474 -21.305600618445283
12 99.23056579037447 -12.275247561137476
13 98.29356044894072 48.046668814131635
14 6.432715625017565 81.5612358683189
15 -27.26418374656636 -59.40376718342135
16 -46.5007817150912 35.57896550763729
17 38.08505099051672 6.589365135978682
18 59.42925313427932 83.09178076984449
19 44.46415514144897 9.759704763330873
20 46.02692988139461 -74.13643592050367
21 64.07657224589926 45.60153141209284
22 23.713809112289752 12.05606272674811
23 9.692190926058046 -6.180867722518883
24 56.55079416823011 7.035047127102814
25 -79.4585472216119 -86.4235209690229
EOF
